20 10
22 71 66 82 95 11 70 34 94 43
8 40 45 74 93 17 80 25 88 75
4 80 24 74 96 18 77 17 95 50
7 58 44 61 95 8 90 11 97 57
16 61 64 84 97 8 75 26 93 76
31 62 29 86 96 10 89 21 96 63
12 47 28 79 87 9 81 27 98 70
8 67 21 84 93 21 80 40 93 60
9 59 50 79 85 8 74 12 97 65
12 65 55 75 94 24 76 18 90 48
11 61 31 87 94 25 70 39 97 56
16 55 46 78 96 12 62 18 92 60
5 61 42 91 98 22 89 14 97 75
16 54 51 91 86 22 74 29 95 63
8 48 57 84 95 10 83 13 96 75
6 46 52 79 83 21 75 22 99 63
14 76 37 90 96 14 79 8 98 56
15 64 46 84 94 11 82 18 95 58
19 50 58 75 93 19 83 10 93 65
7 61 39 70 93 10 70 24 94 74
